sifdecoder -A pc64.lnx.gfo -st   DTOC1L

 Problem name: DTOC1L

 Double precision version will be formed

 The objective function uses 5998 nonlinear groups
 
 There are 3996 linear equality constraints
 
 There are 5994 free variables
 There are 4 fixed variables
 
 
 File successfully decoded
 CUTEST: tools (double precision version) compiled successfully
 CUTEst: ipopt (double precision version) compiled successfully

******************************************************************************
This program contains Ipopt, a library for large-scale nonlinear optimization.
 Ipopt is released as open source code under the Eclipse Public License (EPL).
         For more information visit http://projects.coin-or.org/Ipopt
******************************************************************************

This is Ipopt version trunk, running with linear solver ma57.

Number of nonzeros in equality constraint Jacobian...:    19970
Number of nonzeros in inequality constraint Jacobian.:        0
Number of nonzeros in Lagrangian Hessian.............:     5994

Total number of variables............................:     5994
                     variables with only lower bounds:        0
                variables with lower and upper bounds:        0
                     variables with only upper bounds:        0
Total number of equality constraints.................:     3996
Total number of inequality constraints...............:        0
        inequality constraints with only lower bounds:        0
   inequality constraints with lower and upper bounds:        0
        inequality constraints with only upper bounds:        0

iter    objective    inf_pr   inf_du lg(mu)  ||d||  lg(rg) alpha_du alpha_pr  ls
   0  1.4050000e+02 0.00e+00 3.62e-01  -1.0 0.00e+00    -  0.00e+00 0.00e+00   0
   1  3.6258130e+01 3.82e-17 1.38e-01  -1.7 1.69e-01    -  1.00e+00 1.00e+00f  1
   2  1.0025809e+01 1.18e-16 5.55e-02  -2.5 1.33e-01    -  1.00e+00 1.00e+00f  1
   3  4.1471086e+00 7.63e-17 2.75e-02  -2.5 1.14e-01    -  1.00e+00 1.00e+00f  1
   4  3.9436237e+00 8.33e-17 1.33e-02  -3.8 1.45e-01    -  1.00e+00 1.00e+00f  1
   5  3.9433446e+00 1.04e-16 1.23e-02  -3.8 1.12e-01    -  1.00e+00 1.00e+00f  1
   6  3.9430550e+00 9.02e-17 2.17e-03  -3.8 3.54e-02    -  1.00e+00 1.00e+00f  1
   7  3.9430436e+00 8.33e-17 1.12e-04  -3.8 8.89e-03    -  1.00e+00 1.00e+00f  1
   8  3.9430435e+00 8.33e-17 3.58e-07  -5.7 5.17e-04    -  1.00e+00 1.00e+00h  1
   9  3.9430435e+00 9.71e-17 3.76e-12  -8.6 1.68e-06    -  1.00e+00 1.00e+00h  1

Number of Iterations....: 9

                                   (scaled)                 (unscaled)
Objective...............:   3.9430435455080457e+00    3.9430435455080457e+00
Dual infeasibility......:   3.7571291564009179e-12    3.7571291564009179e-12
Constraint violation....:   9.7144514654701197e-17    9.7144514654701197e-17
Complementarity.........:   0.0000000000000000e+00    0.0000000000000000e+00
Overall NLP error.......:   3.7571291564009179e-12    3.7571291564009179e-12


Number of objective function evaluations             = 10
Number of objective gradient evaluations             = 10
Number of equality constraint evaluations            = 10
Number of inequality constraint evaluations          = 0
Number of equality constraint Jacobian evaluations   = 10
Number of inequality constraint Jacobian evaluations = 0
Number of Lagrangian Hessian evaluations             = 9
Total CPU secs in IPOPT (w/o function evaluations)   =      0.096
Total CPU secs in NLP function evaluations           =      0.024

EXIT: Optimal Solution Found.

************************ CUTEst statistics ************************


 Package used            :  IPOPT
 Problem                 :  DTOC1L    
 # variables             =            5998
 # constraints           =            3996
 # objective functions   =        0.2100000E+02
 # objective gradients   =        0.1100000E+02
 # objective Hessians    =        0.1000000E+02
 # Hessian-vector prdct  =        0.0000000E+00
 # constraints functions =        0.2200000E+02
 # constraints gradients =        0.1200000E+02
 # constraints Hessians  =        0.1000000E+02
 Exit code               =               0
 Final f                 =        3.9430435455080457D+00
 Bounds feasibility      =        0.0000000000000000D+00
 Set up time             =            0.62 seconds
 Solve time              =            0.31 seconds


******************************************************************

